p td 140 72
0 96
1 117
2 5
3 40
3 86
3 108
6 54
7 30
7 48
10 26
10 65
11 82
12 94
14 117
17 28
17 105
17 111
17 139
21 22
22 25
22 87
22 115
24 64
26 46
27 63
27 84
29 130
31 74
36 40
36 76
37 63
38 98
40 59
41 44
41 115
43 132
44 55
45 114
45 130
46 74
48 106
48 111
50 133
54 103
54 105
58 65
58 69
59 68
59 128
60 111
64 94
69 72
70 102
72 90
78 129
78 132
84 91
84 131
86 105
87 98
89 132
90 128
94 113
96 130
98 136
102 134
102 137
107 116
119 124
120 122
126 135
130 132
